Cu C  Cl O  N  H  S 
 1.0000000000000000
    15.3369998931999998    0.0000000000000000    0.0000000000000000
     0.0000000000000000   15.3369998931999998    0.0000000000000000
     0.0000000000000000    0.0000000000000000   30.2000007629000002
 Cu  C   Cl  O   N   H   S  
 144  13   1   1   3  20   1
Selective dynamics
Cartesian
  2.0163553759590038  1.7824661275877041  2.4241540612379828   F   F   F
  0.7383231748586481  0.5042805564884160  4.1814921056311336   F   F   F
  2.0215239449230125  1.7835090435804417  5.9565575504721071   F   F   F
  0.7355165038781923  0.5093110924533856  7.6918495943083416   T   T   T
  2.0163553759590038  4.3385305297884162  2.4241540612379828   F   F   F
  0.7383231748586481  3.0604983286880598  4.1814921056311336   F   F   F
  2.0235024179092354  4.3401409147772014  5.9543831504171791   F   F   F
  0.7373109328656968  3.0581057567047205  7.6922723943190228   T   T   T
  2.0163553759590038  6.8947483019880602  2.4241540612379828   F   F   F
  0.7383231748586481  5.6167161008877038  4.1814921056311336   F   F   F
  2.0170762149539843  6.8949630199865650  5.9585809505232215   F   F   F
  0.7343969028859888  5.6153357708973157  7.6920307943129194   T   T   T
  4.5725731481586482  1.7824661275877041  2.4241540612379828   F   F   F
  3.2945409470582918  0.5042805564884160  4.1814921056311336   F   F   F
  4.5765147571312008  1.7819139955915486  5.9355081499403655   F   F   F
  3.2663975522542699  0.4965200345424568  7.6883765942206068   T   T   T
  4.5725731481586482  4.3385305297884162  2.4241540612379828   F   F   F
  3.2945409470582918  3.0604983286880598  4.1814921056311336   F   F   F
  4.5941062960087002  4.3192825949224503  5.9767915509832505   F   F   F
  3.2668729992509591  3.0714949576114843  7.6905509942755366   T   T   T
  4.5725731481586482  6.8947483019880602  2.4241540612379828   F   F   F
  3.2945409470582918  5.6167161008877038  4.1814921056311336   F   F   F
  4.5747203281436954  6.8942268439916914  5.9551079504354885   F   F   F
  3.3021634360052121  5.6204429918617516  7.6907925942816400   T   T   T
  7.1287909203582922  1.7824661275877041  2.4241540612379828   F   F   F
  5.8506053492590038  0.5042805564884160  4.1814921056311336   F   F   F
  7.1390360362869494  1.7840918495763831  5.9678523507574326   F   F   F
  5.8234741964479335  0.4982377785304952  7.7888217967580138   T   T   T
  7.1287909203582922  4.3385305297884162  2.4241540612379828   F   F   F
  5.8506053492590038  3.0604983286880598  4.1814921056311336   F   F   F
  7.1272878943687585  4.3003720740541338  6.0059949517209743   F   F   F
  5.8281673184152520  3.0436736398052195  7.8073041972249086   T   T   T
  7.1287909203582922  6.8947483019880602  2.4241540612379828   F   F   F
  5.8506053492590038  5.6167161008877038  4.1814921056311336   F   F   F
  7.1281927773624574  6.8938434189943605  5.9519671503561469   F   F   F
  5.8586112632032545  5.6152437488979565  7.6943259943708986   T   T   T
  9.6848553225590042  1.7824661275877041  2.4241540612379828   F   F   F
  8.4068231214586469  0.5042805564884160  4.1814921056311336   F   F   F
  9.6786745116020452  1.7796594566072483  5.9280487497519294   F   F   F
  8.3817624636331605  0.4369204529574816  7.7236199951109121   T   T   T
  9.6848553225590042  4.3385305297884162  2.4241540612379828   F   F   F
  8.4068231214586469  3.0604983286880598  4.1814921056311336   F   F   F
  9.6772021596122961  4.3429935967573376  5.9546247504232817   F   F   F
  8.4140775224081317  3.1060645553707573  7.7695843962720472   T   T   T
  9.6848553225590042  6.8947483019880602  2.4241540612379828   F   F   F
  8.4068231214586469  5.6167161008877038  4.1814921056311336   F   F   F
  9.6843798755623141  6.9002696219496116  5.9490981502836711   F   F   F
  8.4097831624380355  5.6466999356789094  7.6942353943686106   T   T   T
 12.2410730947586472  1.7824661275877041  2.4241540612379828   F   F   F
 10.9630408936582917  0.5042805564884160  4.1814921056311336   F   F   F
 12.2399381567665522  1.7809017535985976  5.9536281503981066   F   F   F
 11.0055703943621346  0.4871337906078184  7.7857413966801969   T   T   T
 12.2410730947586472  4.3385305297884162  2.4241540612379828   F   F   F
 10.9630408936582917  3.0604983286880598  4.1814921056311336   F   F   F
 12.2377756397816100  4.3403096217760275  5.9581883505133035   F   F   F
 11.0272109012114417  3.1221684052586172  7.6871383941893292   T   T   T
 12.2410730947586472  6.8947483019880602  2.4241540612379828   F   F   F
 10.9630408936582917  5.6167161008877038  4.1814921056311336   F   F   F
 12.2434196557423078  6.9031069669298546  5.9512121503370743   F   F   F
 10.9647739746462225  5.6543991096252961  7.6886181942267102   T   T   T
 14.7972908669582903  1.7824661275877041  2.4241540612379828   F   F   F
 13.5191052958590028  0.5042805564884160  4.1814921056311336   F   F   F
 14.7970914859596796  1.7831102815832185  5.9455345501936483   F   F   F
 13.5458376866728525  0.5114582724384337  7.6938729943594550   T   T   T
 14.7972908669582903  4.3385305297884162  2.4241540612379828   F   F   F
 13.5191052958590028  3.0604983286880598  4.1814921056311336   F   F   F
 14.8017846079270008  4.3431469667562697  5.9516047503469913   F   F   F
 13.5535521976191298  3.0675993596386113  7.6880443942122154   T   T   T
 14.7972908669582903  6.8947483019880602  2.4241540612379828   F   F   F
 13.5191052958590028  5.6167161008877038  4.1814921056311336   F   F   F
 14.7946375659767675  6.8958218919805843  5.9586413505247480   F   F   F
 13.5118815689093061  5.6164246978897330  7.6982821944708402   T   T   T
  2.0163553759590038  9.4509660741877042  2.4241540612379828   F   F   F
  0.7383231748586481  8.1727805030884166  4.1814921056311336   F   F   F
  2.0160946469608194  9.4521010121798010  5.9552287504385397   F   F   F
  0.7361299838739204  8.1732252760853186  7.6920005943121552   T   T   T
  2.0163553759590038 12.0070304763884170  2.4241540612379828   F   F   F
  0.7383231748586481 10.7289982752880597  4.1814921056311336   F   F   F
  2.0152357749668006 12.0082574363798713  5.9574333504942310   F   F   F
  0.7370195298677260 10.7324030892643503  7.6922421943182586   T   T   T
  2.0163553759590038 14.5632482485880601  2.4241540612379828   F   F   F
  0.7383231748586481 13.2852160474877028  4.1814921056311336   F   F   F
  2.0184412079444791 14.5633556075873116  5.9544435504187048   F   F   F
  0.7331546058946395 13.2859062124828977  7.6920911943144450   T   T   T
  4.5725731481586482  9.4509660741877042  2.4241540612379828   F   F   F
  3.2945409470582918  8.1727805030884166  4.1814921056311336   F   F   F
  4.5739688151489295  9.4507820301889858  5.9577051505010976   F   F   F
  3.2968568340421656  8.1729645470871350  7.6920911943144450   T   T   T
  4.5725731481586482 12.0070304763884170  2.4241540612379828   F   F   F
  3.2945409470582918 10.7289982752880597  4.1814921056311336   F   F   F
  4.5722357341609978 12.0056808203978154  5.9519973503569101   F   F   F
  3.2959212770486799 10.7322190452656319  7.6920609943136808   T   T   T
  4.5725731481586482 14.5632482485880601  2.4241540612379828   F   F   F
  3.2945409470582918 13.2852160474877028  4.1814921056311336   F   F   F
  4.5870359390579356 14.5790760324778432  5.9722917508695783   F   F   F
  3.2990040140272128 13.2834522924999856  7.6909435942854536   T   T   T
  7.1287909203582922  9.4509660741877042  2.4241540612379828   F   F   F
  5.8506053492590038  8.1727805030884166  4.1814921056311336   F   F   F
  7.1316436023384275  9.4503832681917626  5.9535375503958177   F   F   F
  5.8555745372244008  8.1707866931022988  7.6929065943350432   T   T   T
  7.1287909203582922 12.0070304763884170  2.4241540612379828   F   F   F
  5.8506053492590038 10.7289982752880597  4.1814921056311336   F   F   F
  7.1308460783439811 12.0053127324003786  5.9495511502951146   F   F   F
  5.8558352662225852 10.7317282612690494  7.6929065943350432   T   T   T
  7.1287909203582922 14.5632482485880601  2.4241540612379828   F   F   F
  5.8506053492590038 13.2852160474877028  4.1814921056311336   F   F   F
  7.1136226274639167 14.5868212174239087  5.9785129510267359   F   F   F
  5.8551144272276048 13.2800014675240163  7.6878027942061120   T   T   T
  9.6848553225590042  9.4509660741877042  2.4241540612379828   F   F   F
  8.4068231214586469  8.1727805030884166  4.1814921056311336   F   F   F
  9.6854227915550535  9.4542175181650627  5.9552287504385397   F   F   F
  8.4079273854509591  8.1823968020214508  7.6932991943449602   T   T   T
  9.6848553225590042 12.0070304763884170  2.4241540612379828   F   F   F
  8.4068231214586469 10.7289982752880597  4.1814921056311336   F   F   F
  9.6854688025547322 12.0088095683760283  5.9490679502829078   F   F   F
  8.4095837814394248 10.7319583162674483  7.6955943944029412   T   T   T
  9.6848553225590042 14.5632482485880601  2.4241540612379828   F   F   F
  8.4068231214586469 13.2852160474877028  4.1814921056311336   F   F   F
  9.6886588985325179 14.5792907504763463  5.9738923509100115   F   F   F
  8.4062863264623857 13.2620265036491851  7.6903999942717229   T   T   T
 12.2410730947586472  9.4509660741877042  2.4241540612379828   F   F   F
 10.9630408936582917  8.1727805030884166  4.1814921056311336   F   F   F
 12.2397387757679397  9.4535580271696542  5.9553495504415919   F   F   F
 10.9607403436743116  8.1863384109940043  7.6981915944685504   T   T   T
 12.2410730947586472 12.0070304763884170  2.4241540612379828   F   F   F
 10.9630408936582917 10.7289982752880597  4.1814921056311336   F   F   F
 12.2402909077640949 12.0096991143698322  5.9541415504110757   F   F   F
 10.9611697796713212 10.7375716582283580  7.6970137944387966   T   T   T
 12.2410730947586472 14.5632482485880601  2.4241540612379828   F   F   F
 10.9630408936582917 13.2852160474877028  4.1814921056311336   F   F   F
 12.2244937978740982 14.5838918504443065  5.9809591510885305   F   F   F
 10.9570748006998357 13.2750782905582980  7.6970439944395608   T   T   T
 14.7972908669582903  9.4509660741877042  2.4241540612379828   F   F   F
 13.5191052958590028  8.1727805030884166  4.1814921056311336   F   F   F
 14.7941774559799715  9.4515028691839653  5.9581883505133035   F   F   F
 13.5127711149031118  8.1735780270828613  7.6956245944037036   T   T   T
 14.7972908669582903 12.0070304763884170  2.4241540612379828   F   F   F
 13.5191052958590028 10.7289982752880597  4.1814921056311336   F   F   F
 14.7936253239838162 12.0086408613772022  5.9580071505087258   F   F   F
 13.5139367268949968 10.7347649872479032  7.6961983944181984   T   T   T
 14.7972908669582903 14.5632482485880601  2.4241540612379828   F   F   F
 13.5191052958590028 13.2852160474877028  4.1814921056311336   F   F   F
 14.7943308259789035 14.5620366255964964  5.9546549504240440   F   F   F
 13.5078479379373952 13.2911207924465860  7.6954433943991258   T   T   T
 12.3075589892956714  3.0792401425575506 12.1525709069932493   T   T   T
  9.7204524993111203 10.0679582428912457 14.4205607642862752   T   T   T
 10.9867058844934995  5.4639442449515387 14.8649537755123493   T   T   T
  8.7224125682610243 12.1925621640964561 13.7399433470927992   T   T   T
 10.8070636047444477 12.2189878149124400 15.0196079794191597   T   T   T
 10.8088887077317395 11.4831952450361694 12.6754839202028613   T   T   T
 11.9520780057710798  4.4567021139655214 14.2263747593808283   T   T   T
 11.4450521263017801  3.8663196400766813 12.9370763268111020   T   T   T
 10.1337846464328614  4.0480170778114219 12.4780061152142601   T   T   T
 10.4800020820219579  2.6984991202088602 10.6607512693075144   T   T   T
 11.8273575226395771  2.4819100077170897 10.9955484777650234   T   T   T
 10.9097448190294219  9.1173403155109245 14.4217687643167931   T   T   T
 10.5284209906847899  7.8468692553579160 15.1872481836540185   T   T   T
 12.2448459967323764  3.1114018313335907 15.4284857897480645   T   T   T
  9.8865215341546921  5.1154109223785689 15.3302149872655882   T   T   T
 10.0312721391467115 11.4856184910192951 13.9616717526940111   T   T   T
  9.6551628907657694  3.4759929927947413 11.3593678869556793   T   T   T
 11.4043784025850155  6.7434794720414279 14.8135835742146575   T   T   T
  8.9430659857244912  9.6936587604977014 13.7429633471690877   T   T   T
  8.1412783053077842 12.1479468314071379 14.6655129704741576   T   T   T
  8.1889303639759561 11.6869166146175463 12.9301303266356342   T   T   T
  8.9302442538137772 13.2309230678657759 13.4685963402381415   T   T   T
 11.7502124131767811 11.6980666135399023 15.2016535840179206   T   T   T
 10.2052550659351731 12.2477446897121904 15.9330674024945953   T   T   T
 11.0040213573729222 13.2325181158546687 14.6611339703635384   T   T   T
 10.9105576800237625 12.5197003718184128 12.3387539116965268   T   T   T
 10.2621399985390518 10.8950212991319493 11.9335907014614602   T   T   T
 11.7973276768486919 11.0542960430228305 12.8546001247276216   T   T   T
 12.9426641548730821  4.8996346708811380 14.0763713555915047   T   T   T
  9.4324696523165041  4.6766807034336892 13.0271327290860714   T   T   T
 12.4670331141851634  1.8678165319933620 10.3591740616891954   T   T   T
 13.3446469220738528  2.9324650535796266 12.4548125146283528   T   T   T
  9.2863540543339891 10.1717130471687440 15.4222041895893813   T   T   T
 12.3429261110493886  6.9539337845759190 14.4872725659715211   T   T   T
 11.7951498228638574  9.5717296113467611 14.8858219760395141   T   T   T
 11.1720842022026083  8.8474551283902834 13.3903481382614675   T   T   T
  9.5006886278414573  7.5381354475078002 14.9555839778018118   T   T   T
 10.5745700233634299  8.0283673120940460 16.2729684110810346   T   T   T
  9.7953430697896167  1.9061743687262551  9.1919440322031107   T   T   T
