Cu C  Cl O  N  H  S 
 1.0000000000000000
    15.3369998931999998    0.0000000000000000    0.0000000000000000
     0.0000000000000000   15.3369998931999998    0.0000000000000000
     0.0000000000000000    0.0000000000000000   30.2000007629000002
 Cu  C   Cl  O   N   H   S  
 144  13   1   1   3  20   1
Selective dynamics
Cartesian
  2.0163553759590038  1.7824661275877041  2.4241540612379828   F   F   F
  0.7383231748586481  0.5042805564884160  4.1814921056311336   F   F   F
  2.0215239449230125  1.7835090435804417  5.9565575504721071   F   F   F
  0.7360409787246645  0.5081127335955959  7.6934883320165932   T   T   T
  2.0163553759590038  4.3385305297884162  2.4241540612379828   F   F   F
  0.7383231748586481  3.0604983286880598  4.1814921056311336   F   F   F
  2.0235024179092354  4.3401409147772014  5.9543831504171791   F   F   F
  0.7424909618402229  3.0576605281203002  7.6937907915437913   T   T   T
  2.0163553759590038  6.8947483019880602  2.4241540612379828   F   F   F
  0.7383231748586481  5.6167161008877038  4.1814921056311336   F   F   F
  2.0170762149539843  6.8949630199865650  5.9585809505232215   F   F   F
  0.7503845040084499  5.6107292261784316  7.6984719591914645   T   T   T
  4.5725731481586482  1.7824661275877041  2.4241540612379828   F   F   F
  3.2945409470582918  0.5042805564884160  4.1814921056311336   F   F   F
  4.5765147571312008  1.7819139955915486  5.9355081499403655   F   F   F
  3.2929582627069567  0.5083196289669469  7.6917917529950408   T   T   T
  4.5725731481586482  4.3385305297884162  2.4241540612379828   F   F   F
  3.2945409470582918  3.0604983286880598  4.1814921056311336   F   F   F
  4.5941062960087002  4.3192825949224503  5.9767915509832505   F   F   F
  3.2966552496222539  3.0582822685328348  7.6917552416837154   T   T   T
  4.5725731481586482  6.8947483019880602  2.4241540612379828   F   F   F
  3.2945409470582918  5.6167161008877038  4.1814921056311336   F   F   F
  4.5747203281436954  6.8942268439916914  5.9551079504354885   F   F   F
  3.2926382073978919  5.6167688946514014  7.6919253325901513   T   T   T
  7.1287909203582922  1.7824661275877041  2.4241540612379828   F   F   F
  5.8506053492590038  0.5042805564884160  4.1814921056311336   F   F   F
  7.1390360362869494  1.7840918495763831  5.9678523507574326   F   F   F
  5.8406100102098399  0.5141624208916554  7.7018077097190938   T   T   T
  7.1287909203582922  4.3385305297884162  2.4241540612379828   F   F   F
  5.8506053492590038  3.0604983286880598  4.1814921056311336   F   F   F
  7.1272878943687585  4.3003720740541338  6.0059949517209743   F   F   F
  5.8459980088179728  3.0506116191025470  7.7060955631848769   T   T   T
  7.1287909203582922  6.8947483019880602  2.4241540612379828   F   F   F
  5.8506053492590038  5.6167161008877038  4.1814921056311336   F   F   F
  7.1281927773624574  6.8938434189943605  5.9519671503561469   F   F   F
  5.8428524540428173  5.6212429824265531  7.6970002226971292   T   T   T
  9.6848553225590042  1.7824661275877041  2.4241540612379828   F   F   F
  8.4068231214586469  0.5042805564884160  4.1814921056311336   F   F   F
  9.6786745116020452  1.7796594566072483  5.9280487497519294   F   F   F
  8.3732253645575341  0.4663422775535535  7.7620782438176130   T   T   T
  9.6848553225590042  4.3385305297884162  2.4241540612379828   F   F   F
  8.4068231214586469  3.0604983286880598  4.1814921056311336   F   F   F
  9.6772021596122961  4.3429935967573376  5.9546247504232817   F   F   F
  8.3999467192067936  3.1469589379748379  7.8071307059116481   T   T   T
  9.6848553225590042  6.8947483019880602  2.4241540612379828   F   F   F
  8.4068231214586469  5.6167161008877038  4.1814921056311336   F   F   F
  9.6843798755623141  6.9002696219496116  5.9490981502836711   F   F   F
  8.3957393857397378  5.6349135660188185  7.7126662345985428   T   T   T
 12.2410730947586472  1.7824661275877041  2.4241540612379828   F   F   F
 10.9630408936582917  0.5042805564884160  4.1814921056311336   F   F   F
 12.2399381567665522  1.7809017535985976  5.9536281503981066   F   F   F
 11.0351294027384803  0.4345885256513019  7.8001360328248452   T   T   T
 12.2410730947586472  4.3385305297884162  2.4241540612379828   F   F   F
 10.9630408936582917  3.0604983286880598  4.1814921056311336   F   F   F
 12.2377756397816100  4.3403096217760275  5.9581883505133035   F   F   F
 10.9994245164568181  3.0898002725384606  7.7147404959527437   T   T   T
 12.2410730947586472  6.8947483019880602  2.4241540612379828   F   F   F
 10.9630408936582917  5.6167161008877038  4.1814921056311336   F   F   F
 12.2434196557423078  6.9031069669298546  5.9512121503370743   F   F   F
 10.9074439719414595  5.6062829177031324  7.6158033425896168   T   T   T
 14.7972908669582903  1.7824661275877041  2.4241540612379828   F   F   F
 13.5191052958590028  0.5042805564884160  4.1814921056311336   F   F   F
 14.7970914859596796  1.7831102815832185  5.9455345501936483   F   F   F
 13.5397163881931863  0.5152122516904601  7.6974220942850415   T   T   T
 14.7972908669582903  4.3385305297884162  2.4241540612379828   F   F   F
 13.5191052958590028  3.0604983286880598  4.1814921056311336   F   F   F
 14.8017846079270008  4.3431469667562697  5.9516047503469913   F   F   F
 13.5572544196400209  3.0480429387056227  7.6395373657015986   T   T   T
 14.7972908669582903  6.8947483019880602  2.4241540612379828   F   F   F
 13.5191052958590028  5.6167161008877038  4.1814921056311336   F   F   F
 14.7946375659767675  6.8958218919805843  5.9586413505247480   F   F   F
 13.5507727141003151  5.6389664376777633  7.6236965084598065   T   T   T
  2.0163553759590038  9.4509660741877042  2.4241540612379828   F   F   F
  0.7383231748586481  8.1727805030884166  4.1814921056311336   F   F   F
  2.0160946469608194  9.4521010121798010  5.9552287504385397   F   F   F
  0.7301296308380643  8.1637034491136102  7.7069806380880239   T   T   T
  2.0163553759590038 12.0070304763884170  2.4241540612379828   F   F   F
  0.7383231748586481 10.7289982752880597  4.1814921056311336   F   F   F
  2.0152357749668006 12.0082574363798713  5.9574333504942310   F   F   F
  0.7249548104890420 10.7195842281445977  7.7003528611465049   T   T   T
  2.0163553759590038 14.5632482485880601  2.4241540612379828   F   F   F
  0.7383231748586481 13.2852160474877028  4.1814921056311336   F   F   F
  2.0184412079444791 14.5633556075873116  5.9544435504187048   F   F   F
  0.7298028454265291 13.2844232956165875  7.6956167860949449   T   T   T
  4.5725731481586482  9.4509660741877042  2.4241540612379828   F   F   F
  3.2945409470582918  8.1727805030884166  4.1814921056311336   F   F   F
  4.5739688151489295  9.4507820301889858  5.9577051505010976   F   F   F
  3.2941742794116133  8.1716618343162306  7.6916115758741093   T   T   T
  4.5725731481586482 12.0070304763884170  2.4241540612379828   F   F   F
  3.2945409470582918 10.7289982752880597  4.1814921056311336   F   F   F
  4.5722357341609978 12.0056808203978154  5.9519973503569101   F   F   F
  3.2963901533352549 10.7316168084408208  7.6896556404223171   T   T   T
  4.5725731481586482 14.5632482485880601  2.4241540612379828   F   F   F
  3.2945409470582918 13.2852160474877028  4.1814921056311336   F   F   F
  4.5870359390579356 14.5790760324778432  5.9722917508695783   F   F   F
  3.2908964664119553 13.2868323020641323  7.6899064899378704   T   T   T
  7.1287909203582922  9.4509660741877042  2.4241540612379828   F   F   F
  5.8506053492590038  8.1727805030884166  4.1814921056311336   F   F   F
  7.1316436023384275  9.4503832681917626  5.9535375503958177   F   F   F
  5.8620876632998904  8.1733406878530719  7.6995196127783379   T   T   T
  7.1287909203582922 12.0070304763884170  2.4241540612379828   F   F   F
  5.8506053492590038 10.7289982752880597  4.1814921056311336   F   F   F
  7.1308460783439811 12.0053127324003786  5.9495511502951146   F   F   F
  5.8535534008222241 10.7255320768402242  7.7006174187739553   T   T   T
  7.1287909203582922 14.5632482485880601  2.4241540612379828   F   F   F
  5.8506053492590038 13.2852160474877028  4.1814921056311336   F   F   F
  7.1136226274639167 14.5868212174239087  5.9785129510267359   F   F   F
  5.8336985401544270 13.2694363506551056  7.6959295729715462   T   T   T
  9.6848553225590042  9.4509660741877042  2.4241540612379828   F   F   F
  8.4068231214586469  8.1727805030884166  4.1814921056311336   F   F   F
  9.6854227915550535  9.4542175181650627  5.9552287504385397   F   F   F
  8.4041806664856615  8.1813377873751509  7.7056526397424978   T   T   T
  9.6848553225590042 12.0070304763884170  2.4241540612379828   F   F   F
  8.4068231214586469 10.7289982752880597  4.1814921056311336   F   F   F
  9.6854688025547322 12.0088095683760283  5.9490679502829078   F   F   F
  8.3884968286257013 10.7328291325494209  7.6787366955445364   T   T   T
  9.6848553225590042 14.5632482485880601  2.4241540612379828   F   F   F
  8.4068231214586469 13.2852160474877028  4.1814921056311336   F   F   F
  9.6886588985325179 14.5792907504763463  5.9738923509100115   F   F   F
  8.3934736094014237 13.2616685426975227  7.6941346226730438   T   T   T
 12.2410730947586472  9.4509660741877042  2.4241540612379828   F   F   F
 10.9630408936582917  8.1727805030884166  4.1814921056311336   F   F   F
 12.2397387757679397  9.4535580271696542  5.9553495504415919   F   F   F
 10.9679654191965543  8.1606658648746802  7.6972053798563653   T   T   T
 12.2410730947586472 12.0070304763884170  2.4241540612379828   F   F   F
 10.9630408936582917 10.7289982752880597  4.1814921056311336   F   F   F
 12.2402909077640949 12.0096991143698322  5.9541415504110757   F   F   F
 10.9657182756871006 10.7336439866637132  7.6339857166730525   T   T   T
 12.2410730947586472 14.5632482485880601  2.4241540612379828   F   F   F
 10.9630408936582917 13.2852160474877028  4.1814921056311336   F   F   F
 12.2244937978740982 14.5838918504443065  5.9809591510885305   F   F   F
 10.9458785842369242 13.2628248728925673  7.6963097674512273   T   T   T
 14.7972908669582903  9.4509660741877042  2.4241540612379828   F   F   F
 13.5191052958590028  8.1727805030884166  4.1814921056311336   F   F   F
 14.7941774559799715  9.4515028691839653  5.9581883505133035   F   F   F
 13.5240347926868818  8.2047141494930642  7.7320937154821774   T   T   T
 14.7972908669582903 12.0070304763884170  2.4241540612379828   F   F   F
 13.5191052958590028 10.7289982752880597  4.1814921056311336   F   F   F
 14.7936253239838162 12.0086408613772022  5.9580071505087258   F   F   F
 13.5097247831958391 10.7545436877978222  7.7059198637266952   T   T   T
 14.7972908669582903 14.5632482485880601  2.4241540612379828   F   F   F
 13.5191052958590028 13.2852160474877028  4.1814921056311336   F   F   F
 14.7943308259789035 14.5620366255964964  5.9546549504240440   F   F   F
 13.5146192497667936 13.3060825498795889  7.7002133500902001   T   T   T
 12.4265103026287171  3.5544082647034205 10.7642832525468695   T   T   T
  9.6890619459737373 10.9618544877961472 10.9588887974106122   T   T   T
 13.0873395786375113  6.9699034634163590 11.1029015117474739   T   T   T
  9.4523977066813547 13.4135440592095510 11.2071207339996626   T   T   T
 10.5174853037463070 12.0431638118773972 13.0038769684699353   T   T   T
 11.6863161299301019 12.4638007595477376 10.8759034742764769   T   T   T
 12.3987433080500331  6.0302348511670516 10.0895445443538883   T   T   T
 11.7276539586803921  4.7911371907369853 10.6415124598418274   T   T   T
 10.2984802562421027  4.7391268186766586 10.8356501585473204   T   T   T
 10.2975159070968960  2.5091459674159706 10.4763134715905011   T   T   T
 11.6588172769671026  2.3906919800017645 10.8916883830673079   T   T   T
 10.6403863221696984  9.7923640855088365 10.5184370324806782   T   T   T
 11.1022685717162766  8.6028353982847712 11.4278019992998310   T   T   T
 13.6067446438737711  5.5318721060786249  8.7858352386443279   T   T   T
 14.0675092264798902  6.6689616220570285 11.7603129509615147   T   T   T
 10.3333659908528119 12.2102041352401525 11.5189436379510699   T   T   T
  9.5794943760382285  3.5550528788679845 10.9517571076296267   T   T   T
 12.4582080091248777  8.1939588137019186 11.1451823831967314   T   T   T
  9.1510276784056739 11.2962163689794082 10.0513049988027383   T   T   T
  8.4223315410334969 13.1971922199864284 11.4989276912364495   T   T   T
  9.5190447100378925 13.6214234177048095 10.1253861565783563   T   T   T
  9.8375309754985683 14.2767125225921578 11.7548952913514597   T   T   T
 10.9688692636206842 11.0655305664639165 13.2002416372808167   T   T   T
  9.5435899070765338 12.1147305704674153 13.4913371891841187   T   T   T
 11.1726280644483769 12.8390017626139255 13.3616626937785963   T   T   T
 12.0266527928898999 13.4682785216516727 11.1342032790591858   T   T   T
 11.5430625626113788 12.3892802358285063  9.7834185364305100   T   T   T
 12.3990938579132912 11.7105022305629713 11.2282416482691705   T   T   T
 11.6781703961162329  6.6409313494004136  9.5036407396805647   T   T   T
  9.7333159758338379  5.6769831859250868 10.8967449277222084   T   T   T
 12.0221971633016285  1.4673117548096242 11.3255098734124040   T   T   T
 13.5184189593679740  3.4729448328507364 10.7303418684479297   T   T   T
  8.9625451876515498 10.5940042430735559 11.6843417964798419   T   T   T
 13.0549905000312787  8.9262690735422776 10.9041357518286954   T   T   T
 11.5345759075001073 10.2075397886287664 10.0093682704224918   T   T   T
 10.0523145713175861  9.3007176022264275  9.7065609454489064   T   T   T
 10.4509196608463668  7.7374299858068536 11.2621969770776662   T   T   T
 11.0317907474141776  8.9129450807676260 12.4694347095935623   T   T   T
  9.7616420747884138  1.8262906796667544  9.0819126432983648   T   T   T
