Cu
 1.0000000000000000
    15.3369998931999998    0.0000000000000000    0.0000000000000000
     0.0000000000000000   15.3369998931999998    0.0000000000000000
     0.0000000000000000    0.0000000000000000   30.2000007629000002
 Cu 
 144
Selective dynamics
Cartesian
  2.0163553759590038  1.7824661275877041  2.4241540612379828   F   F   F
  0.7383231748586481  0.5042805564884160  4.1814921056311336   F   F   F
  2.0215239449230125  1.7835090435804417  5.9565575504721071   F   F   F
  0.7393060461544391  0.5072839112597125  7.6874020453042622   T   T   T
  2.0163553759590038  4.3385305297884162  2.4241540612379828   F   F   F
  0.7383231748586481  3.0604983286880598  4.1814921056311336   F   F   F
  2.0235024179092354  4.3401409147772014  5.9543831504171791   F   F   F
  0.7428793247298754  3.0589130425256186  7.6869041609524471   T   T   T
  2.0163553759590038  6.8947483019880602  2.4241540612379828   F   F   F
  0.7383231748586481  5.6167161008877038  4.1814921056311336   F   F   F
  2.0170762149539843  6.8949630199865650  5.9585809505232215   F   F   F
  0.7393071740242501  5.6145798399334561  7.6909586869221327   T   T   T
  4.5725731481586482  1.7824661275877041  2.4241540612379828   F   F   F
  3.2945409470582918  0.5042805564884160  4.1814921056311336   F   F   F
  4.5765147571312008  1.7819139955915486  5.9355081499403655   F   F   F
  3.2897878494679507  0.5092636482586129  7.6923952575384611   T   T   T
  4.5725731481586482  4.3385305297884162  2.4241540612379828   F   F   F
  3.2945409470582918  3.0604983286880598  4.1814921056311336   F   F   F
  4.5941062960087002  4.3192825949224503  5.9767915509832505   F   F   F
  3.2941696309970876  3.0562159570110232  7.6933273191372686   T   T   T
  4.5725731481586482  6.8947483019880602  2.4241540612379828   F   F   F
  3.2945409470582918  5.6167161008877038  4.1814921056311336   F   F   F
  4.5747203281436954  6.8942268439916914  5.9551079504354885   F   F   F
  3.2968191614677500  5.6150652992077381  7.6904901569194548   T   T   T
  7.1287909203582922  1.7824661275877041  2.4241540612379828   F   F   F
  5.8506053492590038  0.5042805564884160  4.1814921056311336   F   F   F
  7.1390360362869494  1.7840918495763831  5.9678523507574326   F   F   F
  5.8435012827664057  0.5098470070351295  7.7099321278896866   T   T   T
  7.1287909203582922  4.3385305297884162  2.4241540612379828   F   F   F
  5.8506053492590038  3.0604983286880598  4.1814921056311336   F   F   F
  7.1272878943687585  4.3003720740541338  6.0059949517209743   F   F   F
  5.8473447348994112  3.0414495493782598  7.7176795968982059   T   T   T
  7.1287909203582922  6.8947483019880602  2.4241540612379828   F   F   F
  5.8506053492590038  5.6167161008877038  4.1814921056311336   F   F   F
  7.1281927773624574  6.8938434189943605  5.9519671503561469   F   F   F
  5.8526729961109378  5.6188077421127147  7.7007848306091136   T   T   T
  9.6848553225590042  1.7824661275877041  2.4241540612379828   F   F   F
  8.4068231214586469  0.5042805564884160  4.1814921056311336   F   F   F
  9.6786745116020452  1.7796594566072483  5.9280487497519294   F   F   F
  8.4083222918658382  0.5061700325170718  7.7034285202117259   T   T   T
  9.6848553225590042  4.3385305297884162  2.4241540612379828   F   F   F
  8.4068231214586469  3.0604983286880598  4.1814921056311336   F   F   F
  9.6772021596122961  4.3429935967573376  5.9546247504232817   F   F   F
  8.4261696022572981  3.0529588243003465  7.7068298539504756   T   T   T
  9.6848553225590042  6.8947483019880602  2.4241540612379828   F   F   F
  8.4068231214586469  5.6167161008877038  4.1814921056311336   F   F   F
  9.6843798755623141  6.9002696219496116  5.9490981502836711   F   F   F
  8.4111369618464664  5.6242792347730397  7.6944893799009826   T   T   T
 12.2410730947586472  1.7824661275877041  2.4241540612379828   F   F   F
 10.9630408936582917  0.5042805564884160  4.1814921056311336   F   F   F
 12.2399381567665522  1.7809017535985976  5.9536281503981066   F   F   F
 10.9591342693069009  0.5238015328132385  7.7028115874564627   T   T   T
 12.2410730947586472  4.3385305297884162  2.4241540612379828   F   F   F
 10.9630408936582917  3.0604983286880598  4.1814921056311336   F   F   F
 12.2377756397816100  4.3403096217760275  5.9581883505133035   F   F   F
 10.9682987103042198  3.0684445576971626  7.6837070766293172   T   T   T
 12.2410730947586472  6.8947483019880602  2.4241540612379828   F   F   F
 10.9630408936582917  5.6167161008877038  4.1814921056311336   F   F   F
 12.2434196557423078  6.9031069669298546  5.9512121503370743   F   F   F
 10.9624281602396536  5.6263210625562099  7.6870853838305857   T   T   T
 14.7972908669582903  1.7824661275877041  2.4241540612379828   F   F   F
 13.5191052958590028  0.5042805564884160  4.1814921056311336   F   F   F
 14.7970914859596796  1.7831102815832185  5.9455345501936483   F   F   F
 13.5250630136060099  0.5123514728768717  7.6953066868667248   T   T   T
 14.7972908669582903  4.3385305297884162  2.4241540612379828   F   F   F
 13.5191052958590028  3.0604983286880598  4.1814921056311336   F   F   F
 14.8017846079270008  4.3431469667562697  5.9516047503469913   F   F   F
 13.5246030207599084  3.0622056791189225  7.6862376487769959   T   T   T
 14.7972908669582903  6.8947483019880602  2.4241540612379828   F   F   F
 13.5191052958590028  5.6167161008877038  4.1814921056311336   F   F   F
 14.7946375659767675  6.8958218919805843  5.9586413505247480   F   F   F
 13.5173870276304662  5.6169552804323937  7.6897095543462406   T   T   T
  2.0163553759590038  9.4509660741877042  2.4241540612379828   F   F   F
  0.7383231748586481  8.1727805030884166  4.1814921056311336   F   F   F
  2.0160946469608194  9.4521010121798010  5.9552287504385397   F   F   F
  0.7373799467944844  8.1730728930610521  7.6921345524322104   T   T   T
  2.0163553759590038 12.0070304763884170  2.4241540612379828   F   F   F
  0.7383231748586481 10.7289982752880597  4.1814921056311336   F   F   F
  2.0152357749668006 12.0082574363798713  5.9574333504942310   F   F   F
  0.7374575366907128 10.7300027344612694  7.6918215897560911   T   T   T
  2.0163553759590038 14.5632482485880601  2.4241540612379828   F   F   F
  0.7383231748586481 13.2852160474877028  4.1814921056311336   F   F   F
  2.0184412079444791 14.5633556075873116  5.9544435504187048   F   F   F
  0.7375547367238419 13.2881982704541510  7.6907718721474234   T   T   T
  4.5725731481586482  9.4509660741877042  2.4241540612379828   F   F   F
  3.2945409470582918  8.1727805030884166  4.1814921056311336   F   F   F
  4.5739688151489295  9.4507820301889858  5.9577051505010976   F   F   F
  3.2957902269368646  8.1736859223444824  7.6913224741854105   T   T   T
  4.5725731481586482 12.0070304763884170  2.4241540612379828   F   F   F
  3.2945409470582918 10.7289982752880597  4.1814921056311336   F   F   F
  4.5722357341609978 12.0056808203978154  5.9519973503569101   F   F   F
  3.2963330131905773 10.7307891098601011  7.6908161687603238   T   T   T
  4.5725731481586482 14.5632482485880601  2.4241540612379828   F   F   F
  3.2945409470582918 13.2852160474877028  4.1814921056311336   F   F   F
  4.5870359390579356 14.5790760324778432  5.9722917508695783   F   F   F
  3.2955429305970609 13.2881883943418444  7.6892999896183003   T   T   T
  7.1287909203582922  9.4509660741877042  2.4241540612379828   F   F   F
  5.8506053492590038  8.1727805030884166  4.1814921056311336   F   F   F
  7.1316436023384275  9.4503832681917626  5.9535375503958177   F   F   F
  5.8536171603930871  8.1720210652292860  7.6900384514308717   T   T   T
  7.1287909203582922 12.0070304763884170  2.4241540612379828   F   F   F
  5.8506053492590038 10.7289982752880597  4.1814921056311336   F   F   F
  7.1308460783439811 12.0053127324003786  5.9495511502951146   F   F   F
  5.8540426327883646 10.7276853047482561  7.6888686629954313   T   T   T
  7.1287909203582922 14.5632482485880601  2.4241540612379828   F   F   F
  5.8506053492590038 13.2852160474877028  4.1814921056311336   F   F   F
  7.1136226274639167 14.5868212174239087  5.9785129510267359   F   F   F
  5.8506439379700446 13.2782936219280181  7.6955084899513411   T   T   T
  9.6848553225590042  9.4509660741877042  2.4241540612379828   F   F   F
  8.4068231214586469  8.1727805030884166  4.1814921056311336   F   F   F
  9.6854227915550535  9.4542175181650627  5.9552287504385397   F   F   F
  8.4073101357557789  8.1762890154720882  7.6900563435210882   T   T   T
  9.6848553225590042 12.0070304763884170  2.4241540612379828   F   F   F
  8.4068231214586469 10.7289982752880597  4.1814921056311336   F   F   F
  9.6854688025547322 12.0088095683760283  5.9490679502829078   F   F   F
  8.4078613073784663 10.7273147717833410  7.6899535854270065   T   T   T
  9.6848553225590042 14.5632482485880601  2.4241540612379828   F   F   F
  8.4068231214586469 13.2852160474877028  4.1814921056311336   F   F   F
  9.6886588985325179 14.5792907504763463  5.9738923509100115   F   F   F
  8.4041681110815780 13.2815844843677660  7.6889390737106167   T   T   T
 12.2410730947586472  9.4509660741877042  2.4241540612379828   F   F   F
 10.9630408936582917  8.1727805030884166  4.1814921056311336   F   F   F
 12.2397387757679397  9.4535580271696542  5.9553495504415919   F   F   F
 10.9610170112364482  8.1813517635983555  7.6913267668109606   T   T   T
 12.2410730947586472 12.0070304763884170  2.4241540612379828   F   F   F
 10.9630408936582917 10.7289982752880597  4.1814921056311336   F   F   F
 12.2402909077640949 12.0096991143698322  5.9541415504110757   F   F   F
 10.9614287570559750 10.7341281250327167  7.6912337923384033   T   T   T
 12.2410730947586472 14.5632482485880601  2.4241540612379828   F   F   F
 10.9630408936582917 13.2852160474877028  4.1814921056311336   F   F   F
 12.2244937978740982 14.5838918504443065  5.9809591510885305   F   F   F
 10.9575560921188728 13.2863272204573768  7.6969782068949479   T   T   T
 14.7972908669582903  9.4509660741877042  2.4241540612379828   F   F   F
 13.5191052958590028  8.1727805030884166  4.1814921056311336   F   F   F
 14.7941774559799715  9.4515028691839653  5.9581883505133035   F   F   F
 13.5158988837985543  8.1745320024816461  7.6937689787637007   T   T   T
 14.7972908669582903 12.0070304763884170  2.4241540612379828   F   F   F
 13.5191052958590028 10.7289982752880597  4.1814921056311336   F   F   F
 14.7936253239838162 12.0086408613772022  5.9580071505087258   F   F   F
 13.5160274522231703 10.7310101445134052  7.6926427826291972   T   T   T
 14.7972908669582903 14.5632482485880601  2.4241540612379828   F   F   F
 13.5191052958590028 13.2852160474877028  4.1814921056311336   F   F   F
 14.7943308259789035 14.5620366255964964  5.9546549504240440   F   F   F
 13.5157735355675097 13.2886620123204597  7.6923175389807650   T   T   T
