Cu C  Cl O  N  H  S 
 1.0000000000000000
    15.3369999999999997    0.0000000000000000    0.0000000000000000
     0.0000000000000000   15.3369999999999997    0.0000000000000000
     0.0000000000000000    0.0000000000000000   90.0000000000000000
 Cu  C   Cl  O   N   H   S  
 144  13   1 467   3 948   1
Cartesian
  1.7295499624900001  1.4057900334800000  1.2428999999999999
  0.4374109332600000  0.3522910433700000  2.9735999999999998
  1.7344599496699999  1.6410600735900001  4.8402000000000003
  0.7026760043800000  0.3788760458000000  6.7513896000000004
  1.7306299940300001  3.9632300290100000  1.2555000000000001
  0.4387920301100000  2.9307499372899999  2.9880000000000000
  1.6804799978400000  4.1759600470700002  4.8330000000000002
  0.6061289758999999  3.0416700353200001  6.6730697999999995
  1.7286300492300000  6.5228299342499998  1.2446999999999999
  0.4335769900000000  5.5115000256400002  2.9951999999999996
  1.6849200593400000  6.8251200570700004  4.8834000000000000
  0.4529729270500000  5.5549500533799998  6.5975796000000004
  4.2851599471800004  1.4041000494500000  1.2411000000000001
  3.0137200398899999  0.3601130667400000  2.9897999999999998
  4.2679800532599996  1.5856899760799998  4.9032000000000000
  3.1188800208299998  0.4023879735400000  6.5547602999999999
  4.2842400339199997  3.9575599401099995  1.2582000000000000
  3.0089700176199998  2.9123400159699999  3.0087000000000002
  4.3087800007700006  4.1687499699999995  4.8194999999999997
  3.0172699419100000  2.9116900339100003  6.6063996000000005
  4.2808600658599998  6.5179199470700002  1.2527999999999999
  3.0006800623799998  5.5004599929299998  3.0383999999999998
  4.3359200492300003  6.8047200066300002  4.8491999999999997
  3.0649600366700001  5.3803499645000006  6.5429000999999998
  6.8383100304399997  1.3995000230399999  1.2375000000000000
  5.5587399794500003  0.3581189500000000  3.0186000000000002
  6.8334000432600002  1.6039399324900001  4.9230000000000000
  5.6823100350799995  0.4690060734800000  6.6104604000000000
  6.8383100304399997  3.9534200237000001  1.2573000000000001
  5.5587399794500003  2.8937900678399999  3.0113999999999996
  6.8427600609899999  4.2238099533699991  4.8384000000000000
  5.5417300194900001  3.0512999842499999  6.5966301000000005
  6.8395400578399999  6.5159200022699997  1.2545999999999999
  5.5624199392299998  5.4889600035899999  3.0024000000000002
  6.8492000672900000  6.7493500624900005  4.9238999999999997
  5.5424100620700001  5.5153200122300001  6.5978900999999999
  9.3905400470700009  1.4002699404399999  1.2222000000000000
  8.1080599536999998  0.3679349367400000  3.0383999999999998
  9.4034200596699993  1.6214299405499999  4.8528000000000002
  7.9681800721599991  0.1763750398900000  7.5807000000000002
  9.3968300575099999  3.9543399369600003  1.2420000000000000
  8.1169500457500003  2.9008400266300001  3.0240000000000000
  9.4247400233700009  4.2020300330399998  4.8473999999999995
  8.0287699642500012  3.0275199657500003  7.3493999999999993
  9.3985100724899997  6.5217500560800001  1.2438000000000000
  8.1302999840299996  5.4895699560799995  2.9933999999999998
  9.3883899530399990  6.7505799365200003  4.9283999999999999
  8.0536100761899991  5.6110400696699996  7.5941999999999998
 11.9455000496999997  1.4065599508800000  1.2249000000000001
 10.6537999654100002  0.3598060200000000  2.9943000000000000
 11.9509000540299990  1.6350800239199998  4.8555000000000001
 10.8087999817700009  0.3225369566300000  7.3764000000000003
 11.9488999558600000  3.9574099442500001  1.2509999999999999
 10.6788000422600007  2.9124999808799998  3.0204000000000000
 11.9766999554299982  4.2138399831500006  4.9032000000000000
 10.8002000657600004  3.0477700203299998  7.4465999999999992
 11.9480999779400001  6.5240499925999993  1.2392999999999998
 10.6809999815400012  5.4923300025999993  3.0059999999999998
 11.9612000764899999  6.7416899978400000  4.9085999999999999
 10.5584999883999995  5.4990799696700003  7.5474000000000006
 14.5113999344299991  1.4045600060799999  1.2240000000000000
 13.2207999731499992  0.3486100100000000  2.9394000000000000
 14.4997999478499988  1.6148299693400001  4.8563999999999998
 13.3273999450199998  0.3869529701100000  7.3890000000000002
 14.5088000061899987  3.9658399262999997  1.2375000000000000
 13.2404000456700004  2.9167900465200001  2.9754000000000000
 14.4928999849199993  4.2014199271799999  4.8761999999999999
 13.2521000294900002  2.9950099734799998  7.5042000000000000
 14.5065000696699986  6.5268100391199999  1.2302999999999999
 13.2316999790500009  5.5090499398899997  2.9880000000000000
 14.4866000054300006  6.7600899501099994  4.9085999999999999
 13.1795000394400006  5.3613500287899996  6.5776499999999993
  1.7232700744700000  9.0747499901099999  1.2519000000000000
  0.4294360000000000  8.0585200633700005  3.0095999999999998
  1.7040899290100000  9.3202899921599993  4.9500000000000002
  0.5005990665200001  8.0193999774700000  6.7202199000000000
  1.7255700109899998 11.6250000000400000  1.2519000000000000
  0.4173199233700000 10.5951000518300003  3.0176999999999996
  1.7053199564100001 11.8635000123500003  4.9230000000000000
  0.3687800054400000 10.6207999559899999  6.7932603000000000
  1.7283300575100000 14.1773999506300008  1.2411000000000001
  0.4262150766300000 13.1365999965200011  2.9933999999999998
  1.7191200356400000 14.3846000599699995  4.8582000000000001
  0.4526140412500000 13.0873999741099993  6.5527902000000005
  4.2794800425999995  9.0702999595599998  1.2509999999999999
  2.9870299790099999  8.0620500272899989  3.0312000000000001
  4.2639899793399998  9.3149300173999983  4.9283999999999999
  2.9991500432600002  7.9530099387200002  6.6054599999999999
  4.2856200571800001 11.6305000016100006  1.2555000000000001
  2.9959300401099997 10.5959000297500001  3.0366000000000000
  4.2600100278399999 11.8954000521300003  4.9230000000000000
  2.7763199972200003 10.5004000582599986  6.5874699000000003
  4.2883799503299995 14.1846000586500001  1.2302999999999999
  3.0100399267400002 13.1587000000399996  3.0141000000000000
  4.2682900140299997 14.4216999562300003  4.9644000000000004
  3.0189800174100001 13.1983999779100003  6.6845996999999997
  6.8375399596699999  9.0710700303300005  1.2492000000000001
  5.5627300533700001  8.0467099598900003  3.0087000000000002
  6.8389199829299994  9.3121699708799994  4.8906000000000001
  5.5680800590799997  7.9879399562200009  6.4746701999999994
  6.8384600262999999 11.6361999976599986  1.2608999999999999
  5.5570599644699996 10.6066000411700010  3.0366000000000000
  6.8438299701099998 11.8775999299299997  4.9265999999999996
  5.5860099322999996 10.5743000124299993  6.5673197999999999
  6.8418399943599999 14.1867000006899993  1.2464999999999999
  5.5561299287899999 13.1758999854300001  3.0446999999999997
  6.8378500738100003 14.4234000626800007  4.9374000000000002
  5.5656200042799995 13.2140000074600010  6.6446604000000002
  9.3983600766300004  9.0767399658599999  1.2501000000000000
  8.1341299396700002  8.0463999991200001  3.0329999999999999
  9.3995899506600011  9.3236699602200002  4.9104000000000001
  8.2069500156699995  8.1035499554800001  6.7416201000000004
  9.3920700661900014 11.6310999850499996  1.2645000000000000
  8.1140400033699986 10.5999000727200006  3.0303000000000000
  9.3845599974000002 11.8758999768500004  4.9382999999999999
  8.1108200002199986 10.5744000096700006  6.6639599999999994
  9.3900799370699986 14.1823999660000002  1.2357000000000000
  8.1098999335900004 13.1647999850499993  3.0428999999999999
  9.3663100409900011 14.4059999294400001  4.9194000000000004
  8.3525199242100001 13.1839000713700010  6.8172399000000006
 11.9509000540299990  9.0726000494500010  1.2321000000000000
 10.6821999484200010  8.0462500032600008  3.0375000000000001
 11.9679000449400004  9.2975999742499997  4.9005000000000001
 10.8210999490299997  8.0901000199600013  6.6691602000000003
 11.9449000662600007 11.6233000469600007  1.2321000000000000
 10.6870999665500008 10.5938999315799993  3.0240000000000000
 11.9130000264800007 11.8521000202499991  4.8978000000000002
 10.6673000529199999 10.6643999795899997  6.6397499999999994
 11.9351000300000010 14.1823999660000002  1.2132000000000001
 10.6581000001000010 13.1403000477699994  3.0051000000000001
 11.9305000035899997 14.4024000287999989  4.8536999999999999
 10.7557000669999994 13.1658999546899995  7.4799000000000007
 14.5041999797799992  9.0747499901099999  1.2302999999999999
 13.2276999360800005  8.0582099492299992  3.0132000000000003
 14.5016000515399988  9.3068000270700004  4.9302000000000001
 13.1984999751499998  7.9434899560799996  6.6307896000000000
 14.4967000334100007 11.6220999267099998  1.2392999999999998
 13.2199999952299994 10.5774999241100005  3.0231000000000003
 14.5004999285300009 11.8640999957899993  4.8996000000000004
 13.1406000394899998 10.6111000703399991  6.6842801999999990
 14.5019000432599992 14.1724999324999992  1.2195000000000000
 13.1985999723900012 13.1278999298999999  2.9726999999999997
 14.5065000696699986 14.4079000303699996  4.9058999999999999
 13.1133000261199992 13.1980999861899999  6.6477897000000006
 11.7663999316499996  4.0061800705499993 13.3028999999999993
  9.5445199995600003 11.2563000537400004 14.5683000000000007
 10.0530999807699999  6.4844800724900002 15.6851999999999983
  8.9848699555299998 13.4291000521299999 13.1723999999999997
 11.3616000614899999 12.8000999283500008 13.5044999999999984
  9.9103100568500011 11.8152999623399992 10.9944000000000006
 10.8769999398900001  5.3299099456399999 15.7419000000000011
 10.7230000492999995  4.4888299392299995 14.4981000000000009
  9.4132400340300002  4.1216699811000002 14.0724000000000000
 10.0904000248800010  2.9006900307699999 11.2850999999999999
 11.4375999576999998  3.1879500469600002 11.7188999999999997
 10.4038999609999987 10.0063000454899989 14.3748000000000005
  9.8000399408799996  8.9097200358599995 15.6527999999999992
 10.4041999527200009  4.2139899790099999 17.3124000000000002
  8.7166299665199993  6.3401599760799998 16.0740000000000016
  9.9476999757799991  1.1795599279100000 16.9481997000000000
 14.4606999534199989 11.4652999600300003 18.4051998000000019
  7.1207299961699997 12.7826999484799995 17.3611998000000014
  2.8777400507099999  7.3473599373300003 17.3449998000000001
 13.9653999737699994 14.0194000170699997  8.3251197000000001
 15.0244000390399997 11.4695999947200011  8.6684498999999988
 13.1996999420299996  8.1448600116099996  9.6712397999999986
 12.4347000443400013 13.7687000347400001 10.6877997000000011
  1.2344400082700000 10.9186000186899985 12.7224999000000007
 13.5645999932099990  7.7053000579099997 12.2772995999999992
  0.9553440305500001 15.2019000478800006  8.6823503999999989
  0.6186050119199999  4.4403699270699999  8.2431296999999990
  1.4442900444700000 12.6593999774199997 14.5182996000000006
  7.4738400353400003  6.1873499299499999 10.9269999000000002
 11.3741000232299996  0.5193979341600000 14.8512996000000008
  4.7103899282999997 13.2038999794800009 17.4499002000000019
 15.0653999810299997  1.7435699742999999  9.9258299999999995
  6.3009800758800001  5.4831100116800000  8.6110901999999996
 13.5280999270200013  4.8439000469999991  8.4777300000000011
  1.7811000734099998  5.2457499985800000 10.3119003000000014
  0.2081749290600000  2.9168599832399997 13.6310003999999996
 12.7888999307300004  1.0513899992400000 10.5758001000000004
  6.4857599451399999  8.6289900541600009 12.5943003000000004
 14.6811000051799994  1.7063599583800000  6.8476499999999998
  7.1965499893699993 10.4302000019700003 16.7023997999999985
 13.2666999332700009 10.9106999299899989 10.3493997000000011
  8.1109500579800002 14.3751000154300002 15.8362002000000004
  7.6792300719400002  1.1261500523700001 10.0682999999999989
  6.2628900228999997 13.5973000109099988 21.6183996000000000
  9.3773399512799998  7.0936299772800000  7.8721101000000004
  5.3308800108899996  1.1185399863399998 12.1082003999999994
 11.9293000367099999  1.6046600046400001  8.1990900000000000
  0.7094390078999999  6.7825700044899992 12.3580998000000015
  3.9948900447399995  6.6067199501100005  9.4384502999999995
  6.7136999728399998 12.4633000218299994  9.7161200999999995
  7.7067299264200004  9.1974200705799998 22.2164000999999978
  8.8380999267400000  9.1265499407600004 18.4278995999999999
  9.3974499790500001  4.0649500742200004  8.2333098000000007
  6.5353300493599997  3.0157199846900000  8.5628898000000007
  4.2766000607399999  8.7658200198799996 11.2890996000000001
  4.9846099669799999  3.4586799979199996 10.7461997999999994
 10.3938999302599999  7.9793900388299992  9.9161496000000007
 13.0036999836799989  1.4509999819699999 13.0377996000000014
  2.6522700468600000  8.8397699726700001 13.0388003999999995
  3.5108599994300000  9.0116000459799999 15.3627003000000002
  4.2113599902499992 15.3254487850799990 16.0197003000000002
  1.8740200547600001 11.7188000184499987 10.3287996000000000
  2.7988799573700001 14.2768999650899993 10.2455999999999996
 14.4394999250599998 12.2393000694299996 16.0674002999999992
  8.9586499737000000 10.2347000298200008 20.5106004000000013
 14.8718999536799998  7.5311300185099999 20.1846995999999983
 11.2278000734900001  6.7483799972399998 12.6855998999999997
  2.8762100315899999 11.2533999804100002 16.5074004000000016
  5.0122000030200002  6.0648600592299999 18.0206000999999993
  7.6157899517699992  6.6516300602499996 18.7421003999999982
  3.3270400730000000 10.5472999907799991 22.6539000000000001
 14.2684000463200000  4.2385500373299996 22.8211002000000036
 11.9406000315699998  3.6235900168299997 23.8843998000000006
 13.0287000605299994  9.7003600234100009 19.6704000000000008
  6.3657399448999996  3.8911200561099997 23.8275999000000027
  9.9612399394899995 14.6052999500799991 20.6853002999999980
  6.3353900157099998  6.6718799614599993 15.7159997999999987
  1.3472700229100001  2.9106000333200002 17.2261997999999998
  1.6105500261199999 10.9546999425500005 18.9461997000000011
  1.8030499277000001  2.5093500651800000 11.6843004000000015
 10.9624000367699992  3.4064199372699999 19.8600002999999994
  5.6781900567700001 14.7039999866199995  9.8489304000000004
  6.4612900683800003  1.2177700695999998 15.5693997000000000
  5.2719600113600000  3.6195100680899999 17.9278002000000001
  4.3769199912200003 10.6187000139500007  9.7895997000000001
 14.1904000519400011 10.2406000203499996 12.5456003999999997
 12.5416000079300005 13.1996999420299996 23.9513003999999974
  8.0048700104100003 12.7244000238599995 20.0148003000000010
  8.3385100348199988  5.0291400262600003 22.8995999999999995
 13.4120000639800008  0.2049909678600000 18.6612003000000009
 11.0784000559399995  0.9204399325800000 19.0719999000000016
  0.8885099856500001  5.3373299862400003 16.8345999000000006
  2.3410499557900000 14.9616999291199999 14.3289998999999995
  0.6779070561200000  1.3251899574900001 15.4428003000000000
 12.0763999643699993 12.8248000134800009 21.3485004000000025
  1.6535899424800000  8.6099299974099992 25.8092000999999982
  4.2818200086900005  4.0524200519599995 22.5578997000000001
  5.8282500254299991 11.5699999843399990 23.0039999999999978
  2.0276500169100000  8.5401299300799991 19.4271002999999993
  3.5853499679900001  1.8832199542100001 17.7928001999999985
  7.1301200744199997  6.8171699697500001 21.2486004000000008
 10.0710999440800002  3.3006400347899998 22.1288003999999994
 15.1231000755800000  1.1926799645599999 24.8672997000000002
  1.4627399953600000  1.2070099371400000 21.1101002999999992
 14.0148999878999998 15.0218999546699994 16.2204003000000014
  0.6453909290500000  1.1969100625300000 27.4757004000000009
 11.4093999691699999 10.6023000064800001 21.3702003000000005
 14.1078000311500009  5.9352499862599997 18.5311997999999996
 12.5536999807099985  1.6642899539000000 25.1912997000000018
 15.1840999256800000 14.2975000100099994 23.9219999999999970
 14.9609999484399996  2.3009499889600002 19.0250999999999983
  6.2929899589899998  1.9879699771400001 27.7559000999999981
  9.2012900557899986  6.5118500225800000 24.9183000000000021
  3.0715600078799996  8.0598899642099990 21.7511001000000022
 13.3916000135399997  4.0945400550599995 20.2095999000000006
  6.7824700072500006 15.1330649845899998 23.3139995999999989
  4.2916300139999999 13.7766999673099999 20.1580002000000000
  5.4568999989000000  1.9439699645799997 21.8750004000000011
  0.8190680372700000  2.8758200116800001 23.4403002000000029
 14.8328999564899995  6.7369700360899998 22.8440997000000010
 15.1339999281100006 13.2953000641300001 29.9711996999999997
  5.6182199328499998  4.3219900656100005 26.5785003000000017
  4.7112000286400004  6.0437799662099998 20.8245995999999991
 11.8189000163499998  8.0295000054500001 18.4137003000000021
  1.6863999264700000  6.9998799574900001 23.8278995999999985
  0.9240229625200000 12.7407000340899987 25.6887998999999994
 13.9888999386499986 13.3884999457300005 19.9922004000000015
  0.8323060154499999 14.1221999404499989 21.6403001999999987
  3.0345199259200002  0.2539949834100000 12.1193001000000002
 11.8959000383299998  9.8948399316899991 24.1399998000000018
  2.6821500503700002 10.8194999931899982 25.0839998999999985
 13.0102999548899998  7.4912300461600001 24.7038002999999975
  7.2631199311300003  8.6806999766199997 28.2323996999999984
  5.7664299525700002  9.0203899874199998 15.0967997999999994
  0.0640054419900000  5.2183800484900003 14.4083997000000004
 10.2958000305299997  0.4851829276000000 28.6287003000000020
  9.4054799721399984  0.7006639433499999 22.9348998000000002
  7.0648499434099996 14.3353000403199999 26.0029998000000013
  4.6447599912699999  1.2435799400499998 29.3932997999999976
  2.4305700309799998 12.1174000597300005 21.1456997999999992
  4.8898300676399993  9.2479099346900000 28.4283999000000023
  3.2163699680700000  4.7384199828700000 26.8619004000000032
 11.1384999308800001 15.0161419847599991 24.9380999999999986
 14.1457000586999992  2.9501299238600001 33.2099000999999987
 11.8529999954100003  4.4630999745500004 33.7098996000000000
  8.6084900064800003 15.2335999398099986 33.8514003000000017
  5.2851400156799997  1.3063199261700000 32.0317002000000031
  8.2439899442599991 10.3007000486599996 26.4639996000000011
  1.5844900092000000 13.8825999585000002 27.9783998999999994
  3.6417300069500000  0.7901939875900000 20.1088997999999997
 14.0326999567300010 15.2806388255499996 33.5382002999999997
  3.9006900373700000 13.3053999387399990 28.2398004000000000
  4.3543500620200000 11.4619000538700000 26.8341003000000029
  7.9451000343400002  5.1428499245900001 38.6759997000000055
 14.0193000198299984  1.5990500367800000 29.2192001999999995
  4.4399599690600002 10.1912000034600005 30.8682998999999967
 10.1193999913300008 11.5755999831499992 27.1796003999999982
  1.2285599558400000 12.6343000566999990 31.8581000999999979
  7.5878299872899992  6.0765799811500001 27.1667996999999986
  9.0539200435599998  8.9124299303900010 24.4997000999999983
  2.6492199776699996  4.5608000386900001 24.4629999000000034
  2.6896699348399999  8.5865999664900006 31.7627001000000000
  9.5105700163600009 14.3071000517900000 26.8424000999999990
  1.7357700362100001  7.0547100392299997 29.4811001999999966
  6.3263399587500002 11.9223000765400009 25.4400003000000012
  8.1376200273899997  8.4445799599699995 30.7245996000000012
 11.1839000581699999 14.0677000643199985 30.5382995999999984
  0.6688830720600000  3.6578200536500001 34.9832997000000034
 13.1795000394400006  5.5175400429799994 29.7444996000000010
 13.6748000190900001 11.1620000491299987 29.1896000999999998
  2.2005999979599999  4.3716100150799999 32.9361002999999997
  8.3332500572999990  2.0927399381699998 29.2437999000000026
  2.5305999387899996  2.9417999390500000 28.7722998000000025
 10.4032999775599997 13.6558999272499992 33.0236001000000030
  5.5004500238800000  7.2451299368699997 33.9920000999999985
  7.5901299238099993  1.5196899572400000 31.8130002000000012
 14.0109999421700007  9.3524400250399999 30.7386998999999967
  8.3171699796500000  3.9927600421800005 33.0777999000000023
 14.5151999829199987  3.6103400757899999 30.4631000999999983
  9.7948799605999994 11.4313999754500006 33.9812001000000024
  4.5713899304499996  3.2761000679399999 33.6384998999999993
 11.8099999552499995  8.7501000549899999 32.4037998000000016
 10.0792000272600006  3.6084200367600001 35.2038995999999997
  7.3199200505199995 11.3416000000100006 34.5475998000000004
 11.4353000211799998  5.5343300703600002 25.4618001000000014
  7.7582499768200002 11.9663999329700008 47.0628998999999979
  4.8732800643099994 14.5790000624799987 33.1373996999999960
  5.4600399429099999 15.0880999679899990 27.6991002000000002
  3.2169500134100000  6.9651200273200002 33.6270996000000011
 11.3966000157099998  6.0787300751800002 31.8401001000000008
 14.5446999355699997  8.7850099810200000 26.6059997999999993
  6.3898400465899998  9.2983099239799998 32.4878003999999976
 13.8180000543899997 15.0488999763199995 30.8107997999999981
  9.9184500162300004 10.2800000064999999 31.2620004000000016
 10.0488999433200004  1.0402700607599999 35.6677001999999987
 11.3852000236099986  4.7869100555499999 27.9864998999999983
 12.1435999500899996  2.2686899897899999 27.7862004000000020
 14.5027000211799990  7.6347300731800001 29.1518999999999977
  0.6037129382900001 10.0819999499800002 32.3352999000000025
 11.9037999736600000 14.6835999361800003 35.0227998000000014
 11.0155999487800003 11.8871999717100003 29.5299000000000014
  3.2721400545400003  7.3218899347999997 27.4977000000000018
  1.5228300546200000  4.3744800278899998 30.4036001999999996
  9.0108299752099992  4.5252899758499998 28.8403002000000015
  9.1014599890899994  5.8553600133700003 31.1462001000000015
  3.4965300268499999 12.6660999458700001 31.1122997999999988
 13.5398000642100005  6.2231400464100002 34.3881000000000014
  5.3006199565199994  0.1889519933700000 42.9902999999999977
  0.8304990101100000  2.9807499376199997 39.0446999999999989
  1.4913700333700000  9.7797900396699990 45.0855000000000032
  6.1389400697799994 14.1807000129199992 37.4048999999999978
 12.1259999757400010 11.7724000727899991 41.0219001000000034
  3.6310299955300001 10.8850000258299993 38.4587999999999965
 12.3994999422699994  4.5943500329299995 36.7227000000000032
 12.1575000265599993  4.0817899468499999 39.4703999999999979
  6.2482899657499997  3.6615599810999999 39.3759000000000015
 12.7789000533599992 13.6380999584199998 39.3083999999999989
  8.2174100030399995  6.6458300669599994 36.6084000000000032
  1.7640600529299999  8.6022199341400007 41.3207999999999984
  4.3932799691200000  4.3880699902200000 38.1807000000000016
  6.0870999361899996 11.7269999454999994 38.5613999999999990
  9.9566299440300003  3.5810399642499999 38.0052000000000021
  9.4202399941999992  1.1788200710299999 38.3990003999999985
  1.7862999298900000  1.6136100643600000 36.7560000000000002
  9.5482899875299996 15.3097999838699987 51.9062004000000030
 12.7305000088699991  2.0677300456399998 40.8770999999999987
  0.0446306700000000 14.3561999235899993 39.7809000000000026
  6.4847900332599995  2.1838400310999999 43.2359999999999971
  9.1448399267399996  6.8470499732599999 40.5594000000000037
  7.0042600513200002 10.2557000636999991 36.7064001000000033
 12.7361000076800011  8.6585099449100014 34.7040999000000028
  4.3671800760000004  1.0541500457599999 48.9691997999999984
  9.2165899402499996  9.3849500173100004 39.9696002999999962
 15.2669030083499990  5.8757999400100003 36.3062997000000038
 11.0526999984099987  0.1754219987100000 40.1828003999999979
  7.1863499641499997 14.6572000513399985 41.2790004000000010
 14.5846000612900006  8.8908300664399995 42.0606999000000030
  3.2683900046700001  8.5230600024500003 37.6493004000000013
  8.2726799499400006  3.0941199680299998 45.0352998000000042
 15.0324999688499990  1.2802800007200001 40.5127997999999963
 11.6334000749400008  6.0447799386099996 41.1820001999999974
 15.1555999454299997  8.4007199742200012 54.6001002000000000
 14.4529000153299982  8.0003400740899995 44.5696001999999964
  7.0261200307899996  1.0375400747599999 39.2059998000000007
  9.3265700335500004  3.6934699899300001 50.4835002000000017
  3.4992000451799998  4.9734999975500003 42.1370001000000016
  0.8630749514799999  1.7229999898999999 42.7789998000000011
  0.8583310640099999  6.5431100493500001 46.4508000000000010
  6.7699700455100000 13.8621000641900007 34.7517999000000017
 12.1573000320799984  2.4285199341900001 43.3652003999999991
  2.5000699532200001  0.6320389969600000 47.1462002999999967
  9.3930899766899998 14.7280999349399995 42.1955999999999989
  0.9093480608100000 12.6576000271000009 41.5805003999999983
  1.6015499677800000  8.0305400074199991 35.5532004000000015
  2.7381199779499998  3.3674099710299998 43.7285996999999966
  8.4455500252200011 15.1776999489499982 49.4672004000000030
  6.0368600651800000  8.8392600174200009 49.4004995999999963
  4.3779000255200007  1.9959300335099999 36.8620001999999971
  7.5963499975300000 14.4125000567799990 53.7820001999999988
 11.9205999700900005  9.7784000473599999 39.3274998000000053
 12.6935999537199997 12.6386999352600000 36.7025003999999981
 13.2287000618499988  7.7783600045900005 40.3992000000000004
  1.7632499525900001 14.4050999542800007 43.5301001999999997
 14.9874999838900003 14.7414000279700002 52.0718004000000008
  8.1706800044799994  2.2702500694299999 48.5578998000000013
  0.1404769509500000 14.9418000182499995 37.2259997999999968
 14.9279999390199993  2.7803499473400000 45.9403002000000029
  0.5127470441100000  6.1135900025900005 54.8155998000000011
  9.9938299909000001  9.0333000605400002 48.1145004000000043
  5.4879399397199995 13.9608999445999995 52.4021004000000019
 14.1568000590800001 11.4871999690699997 42.4108997999999957
  8.1636700752600007 12.4699999902799998 55.2197997000000029
  9.1333299683500009  9.1921200634900000 37.3095999000000020
  1.7960999661500001  7.7316800046500003 48.8030003999999948
 12.6811999892199996  8.8319300050099994 55.5775001999999958
  1.4146799721600001 11.8098999580099999 47.2977998999999940
  6.7922399829900000  8.9446100237900001 43.1486001000000030
  4.5607500400699994 11.4360000018600001 42.7274999999999991
 11.8127000340999988  4.9332600039100001 43.2549999000000014
 15.2120000758600007 12.2561000658599983 35.9260001999999972
  8.0141800295200003  8.5976999668699996 53.7255998999999989
  4.3789400274899997  1.7105900563499998 44.6603004000000041
  6.7496100246399999  1.1087299810300000 55.3797998999999948
 14.2488999710400002  5.2047600256399997 47.1687003000000047
  9.4428899825400006  5.4579899994899996 44.5265000999999998
 15.2248000293200008  9.7517500160499999 34.8717996000000028
  2.9231199331599997  5.6835699696299997 55.6364997000000017
 11.4138999983399998 10.3721000718300012 36.1798002000000025
  6.5125000046399997 12.0764999616100006 41.0951997000000020
  5.3021200684900007 12.6079000184899996 48.2848002000000065
  6.2643200447799998  4.9553500383800007 33.8675003999999973
  0.1952490588300000  1.4724699415300000 50.4636002999999960
 10.6799000119000009  7.0186699296699997 46.8250002000000052
 14.8704999923199992  6.1099000737599996 38.9931003000000018
  3.6458800457799998 14.4930999794000002 36.8192997000000020
  6.1140899887900000 14.5337999296699998 49.6080999000000062
  7.4278500470299997  6.2600200100899999 42.6047003999999987
  4.4176400329599996 10.8724000668500000 50.0821001999999993
  4.6394599841800002 11.6034999799600005 52.7000004000000004
  1.9885799296300000 12.8865999948700001 37.7846000999999987
  4.2975800031499993  6.9607000572899995 48.8582999999999998
 11.0456000410000001  5.6690200644699997 49.5016001999999986
  0.1060599561000000  0.7476600388600000 47.9627001000000064
  7.3424899797199998  6.7273299647400000 55.2750003000000021
 12.8864000003899992 12.7434999568100000 46.8511002000000047
  2.6055699554500000 11.0328999314100002 41.0426001000000014
  2.1701100419599997 10.1157999373199985 49.2923996999999972
  8.3880999237699996 10.5982999635099997 41.7725001000000020
 10.4790000354200004 11.7690000132600012 54.4834998000000041
 14.8104999612499988 13.3116000743599994 48.2374998000000019
 12.6437999478699989  6.0945400682599997 45.5497002000000037
  1.8883099977700000  7.0853599601399999 39.4218000000000046
  3.2028399734099997  3.9226500140800002 51.7103999999999928
  6.0159199989700003 10.4594999601399987 54.4358997000000002
  8.5466599645699990  2.9574899967900001 54.4464000000000041
  1.9067400105599999 10.0409000107500006 55.2644000999999960
 11.9539999684699989 12.7786000616399988 56.5515998999999994
  7.0232099884099997  8.0188199321300004 45.7929998999999981
  9.5177400638599998 13.4695000106799991 47.9825999999999979
 15.2422346708100012  6.8444299535499997 50.6566997999999984
  5.6568699397000000  7.9456799263100004 36.5876999999999981
  5.3261100505199996  9.7131400387699998 58.7012004000000047
  7.8707499392200004  7.6969499816299995 51.1702002000000036
  5.7963099560800000  4.5613199629899999 41.8413995999999955
 10.6091999694099997 14.2096999793699990 45.3708000000000027
  0.7720759293800000 14.0178000612300000 56.3337999000000025
 14.3642000095299984  1.3847899996000002 61.4886003000000017
  4.3890400554699998  1.6473100544600001 55.0140002999999993
  5.6164500430500004  3.2377600218599998 60.6779001000000022
  2.9293300378299998  0.0096850087600000 34.7333003999999974
 10.3259999638600011  2.5120599597099997 52.2406997999999945
  1.4507400198200000 13.9444999371299989 53.8091999999999970
 10.4466000094400009 13.4461000430399995 58.3794999000000061
  9.9527199292499997  1.0415999320300000 44.1074996999999982
  5.3153100418600001  3.1359899780300000 47.9171997000000047
 14.3620000702499997 12.6272999431599988 50.6046996000000036
 12.1650999701699991  7.0058699762099996 57.1748003999999952
 13.6696000092399998 14.5947999331399991 55.7933003999999997
  9.8757499677900000  3.5555400545699998 56.6062002000000035
  0.8870419280100000  5.2671599904699997 52.2991997999999967
  0.7949170167399999 11.6004000655200006 57.1536998999999994
  4.1384500394299994 13.4536999866500011 44.4399002999999979